Geometry = GenFormat {
20  S
C    H    N    O
1      1      0.565452110000000      0.333457600000000      0.313015220000000
2      1      2.392140420000000      3.467457600000000      4.631932910000000
3      1     -1.058045180000000      0.450669200000000      3.824917370000000
4      1      4.015637710000000      3.584669200000000      1.120030750000000
5      2      0.908292540000000      0.075216000000000      4.277380130000000
6      2      2.049299990000000      3.209216000000000      0.667568000000000
7      2      0.558386480000000      6.073692000000000      2.724666420000000
8      2      2.399206040000000      2.939692000000000      2.220281710000000
9      2      0.049333540000000      4.995596000000000      3.876839330000000
10     2      2.908258990000000      1.861596000000000      1.068108800000000
11     2     -0.904064830000000      1.510588000000000      3.590032340000000
12     2      3.861657350000000      4.644588000000000      1.354915790000000
13     2      3.262811030000000      0.050144000000000      3.154876900000000
14     2     -0.305218510000000      3.184144000000000      1.790071220000000
15     3      0.223784740000000      5.992208000000000      3.649866210000000
16     3      2.733807780000000      2.858208000000000      1.295081910000000
17     4      1.402147790000000      0.169236000000000      1.196677450000000
18     4      1.555444740000000      3.303236000000000      3.748270680000000
19     4      4.416518280000000      0.484516400000000      0.479659970000000
20     4     -1.458925750000000      3.618516400000000      4.465288160000000
0.000000000000000      0.000000000000000      0.000000000000000
5.862000000000000      0.000000000000000      0.000000000000000
0.000000000000000      8.340999999999999      0.000000000000000
0.000000000000000      0.000000000000000     10.962000000000000
}
Driver = Socket {
  File = "dftb_nvt"
  MaxSteps = -1
  Protocol = i-PI {}
  Prefix = "/tmp/ipi_"
  Verbosity = 0
}
Hamiltonian = DFTB {
  Charge = +0
  Dispersion = DftD3 {
    Damping = BeckeJohnson {
      a1 = 0.57189999999999996
      a2 = 3.6017000000000001
    }
    s6 = 1.0000000000000000
    s8 = 0.58830000000000005
    cutoff = 94.868329805051374
    cutoffcn = 40.000000000000000
    threebody = No
    hhrepulsion = No
  }
  Solver = RelativelyRobust {}
  HubbardDerivs = {
    H = -0.1857
    C = -0.1492
    N = -0.1535
    O = -0.1575
  }
  MaxAngularMomentum = {
    H = "s"
    C = "p"
    N = "p"
    O = "p"
  }
  SCC = Yes
  SCCTolerance = 1e-04
  MaxSCCIterations = 1000
  SlaterKosterFiles = Type2FileNames {
    Prefix = /home/lumiaro/Documents/my_practices/edgars_data/edgars_data_modified/PIMD_examples/PI_NVT/glycine_gamma/MLP_run/delta_learning_scripts/dftb-param/dftb-param/
    Separator = "-"
    Suffix = ".skf"
    LowerCaseTypeName = No
  }
  ThirdOrderFull = Yes
  Filling = Fermi {
    Temperature [K] = 300
    IndependentKFilling = No
  }
  KPointsAndWeights = {
4 3 2 1.0
  }
  Differentiation = FiniteDiff {
    Delta = 1.0000000000000000E-002
  }
  HCorrection = Damping {
    Exponent = 4.0000000000000000
  }
  PolynomialRepulsive = {}
  ShellResolvedSCC = No
  OldSKInterpolation = No
  RangeSeparated = None {}
  ReadInitialCharges = No
  InitialCharges = {}
  EwaldParameter = 0.0000000000000000
  EwaldTolerance = 1.0000000000000001E-009
  SpinPolarisation = {}
  ElectricField = {}
  OnSiteCorrection = {}
  Solvation = {}
  Electrostatics = GammaFunctional {}
  ThirdOrder = No
  ForceEvaluation = "Traditional"
  Mixer = Broyden {
    MixingParameter = 0.20000000000000001
    InverseJacobiWeight = 1.0000000000000000E-002
    MinimalWeight = 1.0000000000000000
    MaximalWeight = 100000.00000000000
    WeightFactor = 1.0000000000000000E-002
  }
}
Analysis = {
  CalculateForces = Yes
  MullikenAnalysis = No
  WriteBandOut = No
  ProjectStates = {}
  WriteEigenvectors = No
  AtomResolvedEnergies = No
  EigenvectorsAsText = No
}
Options = {
  WriteResultsTag = No
  WriteDetailedOut = No
  WriteAutotestTag = No
  WriteDetailedXML = No
  RestartFrequency = 20
  RandomSeed = 0
  WriteHS = No
  WriteRealHS = No
  MinimiseMemoryUsage = No
  ShowFoldedCoords = No
  TimingVerbosity = 1
  WriteChargesAsText = No
}
ParserOptions = {
  ParserVersion = 10
  WriteHSDInput = Yes
  StopAfterParsing = No
  IgnoreUnprocessedNodes = No
}
Reks = None {}
ExcitedState = {}
