Geometry = GenFormat {
40  S
O    C    N    H
1      1     -1.373780620000000      9.370126800000000      4.310940550000000
2      1      3.810726970000000      1.768873200000000      0.485388500000000
3      1      0.160200150000000      3.800626800000000      2.883553020000000
4      1      2.276746200000000      7.338373200000000      1.912776020000000
5      1      1.528806980000000     10.202210100000000      3.702766030000000
6      1      0.908139370000000      0.936789900000000      1.093563020000000
7      1      2.126612540000000      4.632710100000000      3.491727550000000
8      1      0.310333810000000      6.506289900000000      1.304601500000000
9      2      2.305594450000000      9.694271700000000      4.536847650000000
10     2      0.131351900000000      1.444728300000000      0.259481400000000
11     2      1.349825070000000      4.124771700000000      2.657645930000000
12     2      1.087121280000000      7.014228300000000      2.138683120000000
13     2      4.203019070000000      9.462580500000000      1.147281910000000
14     2     -1.766072720000000      1.676419500000000      3.649047140000000
15     2      1.884454110000000      3.893080500000000      1.250882620000000
16     2      0.552492240000000      7.245919500000000      3.545446430000000
17     3      2.919893680000000     10.140945600000000      1.342492500000000
18     3     -0.482947330000000      0.998054400000000      3.453836550000000
19     3      3.167579490000000      4.571445600000000      1.055672020000000
20     3     -0.730633140000000      6.567554400000000      3.740657020000000
21     4      4.088426770000000      8.510196000000001      1.289732880000000
22     4     -1.651480420000000      2.628804000000000      3.506596170000000
23     4      1.999046400000000      2.940696000000000      1.108431640000000
24     4      0.437899950000000      8.198304000000000      3.687897410000000
25     4     -0.024892720000000      9.809003400000000      1.789990000000000
26     4      2.461839070000000      1.329996600000000      3.006339050000000
27     4      1.243365900000000      4.239503400000000      0.608174520000000
28     4      1.193580450000000      6.899496600000000      4.188154520000000
29     4      2.625985120000000      9.986113500000000      2.170818530000000
30     4     -0.189038770000000      1.152886500000000      2.625510520000000
31     4      3.461488060000000      4.416613500000000      0.227346000000000
32     4     -1.024541710000000      6.722386500000000      4.568983050000000
33     4      2.324847610000000      9.820142400000000      0.758779260000000
34     4      0.112098740000000      1.318857600000000      4.037549790000000
35     4      3.762625560000000      4.250642400000000      1.639385270000000
36     4     -1.325679210000000      6.888357600000000      3.156943780000000
37     4      3.018183880000000     11.012015399999999      1.217787950000000
38     4     -0.581237530000000      0.126984600000000      3.578541100000000
39     4      3.069289300000000      5.442515400000000      1.180376580000000
40     4     -0.632342950000000      5.696484600000000      3.615952470000000
0.000000000000000      0.000000000000000      0.000000000000000
4.869000000000000      0.000000000000000      0.000000000000000
0.000000000000000     11.138999999999999      0.000000000000000
-2.433193866678768      0.000000000000000      4.796087114216841
}
Driver = Socket {
  File = "dftb_nvt"
  MaxSteps = -1
  Protocol = i-PI {}
  Prefix = "/tmp/ipi_"
  Verbosity = 0
}
Hamiltonian = DFTB {
  Charge = +0
  Dispersion = DftD3 {
    Damping = BeckeJohnson {
      a1 = 0.57189999999999996
      a2 = 3.6017000000000001
    }
    s6 = 1.0000000000000000
    s8 = 0.58830000000000005
    cutoff = 94.868329805051374
    cutoffcn = 40.000000000000000
    threebody = No
    hhrepulsion = No
  }
  Solver = RelativelyRobust {}
  HubbardDerivs = {
    H = -0.1857
    C = -0.1492
    N = -0.1535
    O = -0.1575
  }
  MaxAngularMomentum = {
    H = "s"
    C = "p"
    N = "p"
    O = "p"
  }
  SCC = Yes
  SCCTolerance = 1e-04
  MaxSCCIterations = 1000
  SlaterKosterFiles = Type2FileNames {
    Prefix = /home/lumiaro/Documents/my_practices/edgars_data/edgars_data_modified/PIMD_examples/PI_NVT/glycine_gamma/MLP_run/delta_learning_scripts/dftb-param/dftb-param/
    Separator = "-"
    Suffix = ".skf"
    LowerCaseTypeName = No
  }
  ThirdOrderFull = Yes
  Filling = Fermi {
    Temperature [K] = 300
    IndependentKFilling = No
  }
  KPointsAndWeights = {
4 3 2 1.0
  }
  Differentiation = FiniteDiff {
    Delta = 1.0000000000000000E-002
  }
  HCorrection = Damping {
    Exponent = 4.0000000000000000
  }
  PolynomialRepulsive = {}
  ShellResolvedSCC = No
  OldSKInterpolation = No
  RangeSeparated = None {}
  ReadInitialCharges = No
  InitialCharges = {}
  EwaldParameter = 0.0000000000000000
  EwaldTolerance = 1.0000000000000001E-009
  ConvergentSCCOnly = Yes
  SpinPolarisation = {}
  ElectricField = {}
  OnSiteCorrection = {}
  Solvation = {}
  Electrostatics = GammaFunctional {}
  ThirdOrder = No
  ForceEvaluation = "Traditional"
  Mixer = Broyden {
    MixingParameter = 0.20000000000000001
    InverseJacobiWeight = 1.0000000000000000E-002
    MinimalWeight = 1.0000000000000000
    MaximalWeight = 100000.00000000000
    WeightFactor = 1.0000000000000000E-002
  }
}
Analysis = {
  CalculateForces = Yes
  MullikenAnalysis = No
  WriteBandOut = No
  ProjectStates = {}
  WriteEigenvectors = No
  AtomResolvedEnergies = No
  EigenvectorsAsText = No
}
Options = {
  WriteResultsTag = No
  WriteDetailedOut = No
  WriteAutotestTag = No
  WriteDetailedXML = No
  RestartFrequency = 20
  RandomSeed = 0
  WriteHS = No
  WriteRealHS = No
  MinimiseMemoryUsage = No
  ShowFoldedCoords = No
  TimingVerbosity = 1
  WriteChargesAsText = No
}
ParserOptions = {
  ParserVersion = 10
  WriteHSDInput = Yes
  StopAfterParsing = No
  IgnoreUnprocessedNodes = No
}
Reks = None {}
ExcitedState = {}
